# PM3 Opt=(CalcFC,TS,NoEigenTest,MaxCycle=60) NoSymm

produkt

0 1
  C     -2.4055480      2.9906290      0.6779260
  C     -2.8935380      2.9192770     -0.6259670
  C     -2.6521990      1.8421250     -1.4783540
  C     -2.1231150      0.6133320     -1.1296760
  N     -2.4625410     -0.0705120      0.0552710
  C     -1.9947520     -1.3992200      0.2827750
  O     -1.5151720     -2.1522240     -0.5492710
  O     -2.2402250     -1.7629860      1.5735180
  C     -1.7838720     -3.0335380      1.9920140
  H     -0.7006460     -3.1360530      1.8629450
  H     -2.3014270     -3.8402850      1.4627230
  H     -2.0487230     -3.0345620      3.0522070
  H     -2.6680960      0.4906420      0.8587660
  C     -0.5043050      3.0254050      0.3877590
  C     -0.0887460      1.9586050     -0.4077390
  H     -0.2101920      3.0290880      1.4438630
  H     -0.4621240      4.0244270     -0.0593580
  C      0.6059510      0.8032900      0.1701480
  H      0.0165350      2.1152020     -1.4933280
  O      0.5678560      0.5016120      1.3615080
  N      1.4457360      0.0117860     -0.7001760
  H     -1.6345650     -0.0083840     -1.9090590
  H     -2.4372450      2.1250020      1.3495660
  H     -2.5943790      3.9121330      1.2365560
  H     -3.3086170      3.8294430     -1.0780300
  H     -2.7297830      2.0452510     -2.5553660
  C      1.0337160     -0.0607170     -2.1203470
  H      1.7795660     -0.6150820     -2.7026500
  H      0.9608970      0.9624860     -2.5237360
  H      0.0461200     -0.5422660     -2.2551450
  C      1.9790360     -1.2604810     -0.1648480
  H      2.5056010     -1.0695050      0.7793880
  H      2.6990450     -1.6812820     -0.8790360
  H      1.1933360     -2.0085750      0.0215950

