# PM3 Opt NoSymm

produkt

0 1
C         -1.63823        3.89130       -0.18065
C         -2.99137        3.27491       -0.17664
C         -3.17614        1.95129       -0.26974
C         -2.06672        0.90352       -0.36190
N         -2.57465       -0.15023        0.50587
C         -1.90854       -1.26195        0.89997
O         -0.82317       -1.31566        1.43404
O         -2.64644       -2.33390        0.50378
C         -1.95680       -3.58639        0.53726
H         -1.41496       -3.73169        1.47516
H         -1.27294       -3.64826       -0.31612
H         -2.69669       -4.38460        0.43029
H         -3.48690       -0.46219        0.19991
C         -0.59375        2.92334        0.35205
C         -0.63416        1.51883       -0.31304
H         -0.71543        2.82248        1.43834
H          0.39443        3.37748        0.19148
C          0.62028        0.77755        0.19264
H         -0.39609        1.72998       -1.37000
O          1.15294        1.10919        1.25839
N          1.29637       -0.06730       -0.69875
H         -2.15687        0.46542       -1.36667
H         -1.63842        4.79403        0.44109
H         -1.39673        4.20589       -1.20282
H         -3.84661        3.94030       -0.08109
H         -4.20618        1.59900       -0.24195
C          0.62091       -1.15764       -1.37289
H         -0.07206       -1.64897       -0.70253
H          1.34133       -1.91872       -1.69136
H          0.07785       -0.77955       -2.23874
C          2.70024       -0.29400       -0.39061
H          3.18664        0.66715       -0.18929
H          3.20069       -0.75146       -1.24940
H          2.79175       -0.93509        0.49036
