# PM3 Opt=(CalcFC,TS,NoEigenTest,MaxCycle=60) NoSymm

produkt

0 1
  C     -2.0060670      2.9809290      0.5862540
  C     -2.7814560      2.9111630     -0.6112540
  C     -3.1393800      1.7909730     -1.3503330
  C     -2.9960190      0.4410830     -1.0947830
  N     -2.5950870     -0.1296110      0.0973040
  C     -2.3770370     -1.5472350      0.1938250
  O     -2.5046720     -2.3570480     -0.7069570
  O     -2.0540950     -1.8701400      1.4743180
  C     -1.6002060     -3.1851110      1.7261410
  H     -0.6687010     -3.3905780      1.1866070
  H     -2.3564950     -3.9353930      1.4731610
  H     -1.4235950     -3.1602260      2.8044680
  H     -2.1913920      0.4580360      0.8062390
  C     -0.4277450      3.2250170      0.2189710
  C      0.1687810      2.1423450     -0.4905080
  H      0.0265360      3.3874270      1.2148640
  H     -0.3826060      4.1728730     -0.3451820
  C      0.6228040      0.9559750      0.1785080
  H      0.3526850      2.2470160     -1.5672370
  O      0.2694090      0.6188540      1.3183560
  N      1.5815610      0.0931090     -0.4892750
  H     -3.2917680     -0.2685080     -1.8866360
  H     -2.0403910      2.0954820      1.2482650
  H     -2.2941000      3.8541310      1.2007720
  H     -3.0766830      3.8770930     -1.0471210
  H     -3.6084960      2.0083280     -2.3218860
  C      1.4990380     -0.0077600     -1.9618320
  H      2.4758470     -0.3178650     -2.3560130
  H      1.2478430      0.9721270     -2.3980350
  H      0.7469030     -0.7375590     -2.2975340
  C      1.9009620     -1.1991440      0.1552410
  H      2.2017280     -1.0286430      1.1971010
  H      2.7413880     -1.6693100     -0.3723950
  H      1.0540850     -1.9037700      0.1530260

