# PM3 Freq NoSymm

produkt

0 1
C     -2.1038890      3.0040980      0.6562000
  C     -2.8297810      2.9495160     -0.5590540
  C     -2.9758040      1.8427280     -1.3934060
  C     -2.7046290      0.5117740     -1.1663960
  N     -2.5672040     -0.0958100      0.0765230
  C     -2.2098370     -1.4813840      0.1724510
  O     -2.0639980     -2.2563540     -0.7567640
  O     -2.1175330     -1.8382350      1.4826180
  C     -1.6143940     -3.1261810      1.7765930
  H     -0.5943580     -3.2518860      1.3955060
  H     -2.2630480     -3.9152750      1.3823340
  H     -1.6211650     -3.1287250      2.8694310
  H     -2.3766920      0.4889200      0.8692450
  C     -0.4542770      3.1703500      0.2503890
  C      0.0339170      2.0619170     -0.4797290
  H     -0.0005370      3.2976690      1.2483990
  H     -0.4044850      4.1223850     -0.3015640
  C      0.5791260      0.8992720      0.1839590
  H      0.1104620      2.1284810     -1.5729480
  O      0.3384320      0.5982110      1.3585120
  N      1.5003620      0.0464670     -0.5391920
  H     -2.7244620     -0.1778600     -2.0274240
  H     -2.1354920      2.1205420      1.3167030
  H     -2.3339510      3.8923640      1.2668870
  H     -3.2085880      3.9023570     -0.9547360
  H     -3.3123960      2.0693670     -2.4159770
  C      1.3045250     -0.0935700     -1.9981410
  H      2.2537480     -0.3949170     -2.4604570
  H      0.9997060      0.8699580     -2.4366430
  H      0.5429380     -0.8456380     -2.2542430
  C      1.9147930     -1.2169710      0.1093640
  H      2.3026850     -1.0071810      1.1146690
  H      2.7181410     -1.6797200     -0.4789650
  H      1.0912630     -1.9426090      0.2022950


