# PM3 Freq NoSymm

produkt_step1

0 1
  C     -2.5135370      3.0240610      0.6885180
  C     -2.9494750      2.9324290     -0.6235840
  C     -2.6518510      1.8531130     -1.4531420
  C     -2.0365350      0.6724280     -1.0605950
  N     -2.4205040     -0.0300780      0.1116810
  C     -1.9646710     -1.3606810      0.3364370
  O     -1.4569420     -2.1073070     -0.4856800
  O     -2.2637910     -1.7427850      1.6112500
  C     -1.8735620     -3.0393340      2.0149940
  H     -0.7900720     -3.1789110      1.9349870
  H     -2.3928100     -3.8132470      1.4401970
  H     -2.1888560     -3.0587760      3.0611590
  H     -2.6286760      0.5250150      0.9183510
  C     -0.4997480      2.9645690      0.3746800
  C     -0.1386850      1.8908550     -0.4304360
  H     -0.2467020      2.9497420      1.4382610
  H     -0.4824960      3.9666860     -0.0601240
  C      0.6106750      0.7524930      0.1405090
  H      0.0028860      2.0755650     -1.5099480
  O      0.5996230      0.4549130      1.3315390
  N      1.4757430      0.0039040     -0.7387090
  H     -1.5376630      0.0460590     -1.8308890
  H     -2.5140800      2.1755470      1.3776330
  H     -2.6559250      3.9655040      1.2215620
  H     -3.3667920      3.8288180     -1.1004790
  H     -2.7278170      2.0271650     -2.5348540
  C      1.0641070     -0.0672750     -2.1595540
  H      1.8184810     -0.6053170     -2.7460850
  H      0.9738280      0.9572360     -2.5562420
  H      0.0847440     -0.5644000     -2.2941730
  C      2.0610450     -1.2526970     -0.2203370
  H      2.5646840     -1.0589410      0.7357710
  H      2.8106310     -1.6223680     -0.9324580
  H      1.3083270     -2.0399260     -0.0637990


